(set-option :auto-config false)
(set-option :produce-unsat-cores false)
(set-option :smt.mbqi.max_iterations 10000000)
(set-option :smt.relevancy 0)
(declare-fun c2 ((_ BitVec 64) (_ BitVec 64)) (_ BitVec 64))
(define-fun e3 ((c0 (_ BitVec 64)) (c1 (_ BitVec 64))) (_ BitVec 64) (c2 c0 c1))
(define-fun e4 ((c0 (_ BitVec 64)) (c1 (_ BitVec 64))) (_ BitVec 64) (_ bv1024 64))
(define-fun e5 ((c0 (_ BitVec 64)) (c1 (_ BitVec 64))) Bool (bvult (e3 c0 c1) (e4 c0 c1)))
(define-fun e6 ((c0 (_ BitVec 64)) (c1 (_ BitVec 64))) (_ BitVec 64) (_ bv4 64))
(declare-fun c7 ((_ BitVec 64)) (_ BitVec 64))
(define-fun e8 ((c0 (_ BitVec 64)) (c1 (_ BitVec 64))) (_ BitVec 64) (c7 (e3 c0 c1)))
(define-fun e9 ((c0 (_ BitVec 64)) (c1 (_ BitVec 64))) Bool (= (e6 c0 c1) (e8 c0 c1)))
(define-fun e10 ((c0 (_ BitVec 64)) (c1 (_ BitVec 64))) Bool (and (e5 c0 c1) (e9 c0 c1)))
(declare-fun c11 ((_ BitVec 64)) (_ BitVec 64))
(define-fun e12 ((c0 (_ BitVec 64)) (c1 (_ BitVec 64))) (_ BitVec 64) (c11 c0))
(define-fun e13 ((c0 (_ BitVec 64)) (c1 (_ BitVec 64))) (_ BitVec 64) (c11 (e3 c0 c1)))
(define-fun e14 ((c0 (_ BitVec 64)) (c1 (_ BitVec 64))) Bool (= (e12 c0 c1) (e13 c0 c1)))
(define-fun e15 ((c0 (_ BitVec 64)) (c1 (_ BitVec 64))) Bool (and (e10 c0 c1) (e14 c0 c1)))
(define-fun e16 ((c0 (_ BitVec 64)) (c1 (_ BitVec 64))) Bool (bvult c0 (e4 c0 c1)))
(define-fun e17 ((c0 (_ BitVec 64)) (c1 (_ BitVec 64))) (_ BitVec 64) (_ bv3 64))
(define-fun e18 ((c0 (_ BitVec 64)) (c1 (_ BitVec 64))) (_ BitVec 64) (c7 c0))
(define-fun e19 ((c0 (_ BitVec 64)) (c1 (_ BitVec 64))) Bool (= (e17 c0 c1) (e18 c0 c1)))
(define-fun e20 ((c0 (_ BitVec 64)) (c1 (_ BitVec 64))) Bool (and (e16 c0 c1) (e19 c0 c1)))
(declare-fun c21 ((_ BitVec 64) (_ BitVec 64)) Bool)
(define-fun e22 ((c0 (_ BitVec 64)) (c1 (_ BitVec 64))) Bool (c21 c0 c1))
(define-fun e23 ((c0 (_ BitVec 64)) (c1 (_ BitVec 64))) (_ BitVec 64) (_ bv512 64))
(define-fun e24 ((c0 (_ BitVec 64)) (c1 (_ BitVec 64))) Bool (bvult c1 (e23 c0 c1)))
(define-fun e25 ((c0 (_ BitVec 64)) (c1 (_ BitVec 64))) Bool (bvult (e12 c0 c1) (e4 c0 c1)))
(define-fun e26 ((c0 (_ BitVec 64)) (c1 (_ BitVec 64))) (_ BitVec 64) (_ bv1 64))
(define-fun e27 ((c0 (_ BitVec 64)) (c1 (_ BitVec 64))) (_ BitVec 64) (c7 (e12 c0 c1)))
(define-fun e28 ((c0 (_ BitVec 64)) (c1 (_ BitVec 64))) Bool (= (e26 c0 c1) (e27 c0 c1)))
(define-fun e29 ((c0 (_ BitVec 64)) (c1 (_ BitVec 64))) Bool (and (e25 c0 c1) (e28 c0 c1)))
(define-fun e30 ((c0 (_ BitVec 64)) (c1 (_ BitVec 64))) (_ BitVec 64) (_ bv2 64))
(declare-fun c31 () Bool)
(declare-fun c32 () (_ BitVec 64))
(define-fun e33 ((c0 (_ BitVec 64)) (c1 (_ BitVec 64))) Bool (bvult c32 (e23 c0 c1)))
(declare-fun c34 () (_ BitVec 64))
(define-fun e35 ((c0 (_ BitVec 64)) (c1 (_ BitVec 64))) Bool (bvult c34 (e4 c0 c1)))
(define-fun e36 ((c0 (_ BitVec 64)) (c1 (_ BitVec 64))) (_ BitVec 64) (_ bv6 64))
(define-fun e37 ((c0 (_ BitVec 64)) (c1 (_ BitVec 64))) (_ BitVec 64) (c7 c34))
(define-fun e38 ((c0 (_ BitVec 64)) (c1 (_ BitVec 64))) Bool (= (e36 c0 c1) (e37 c0 c1)))
(define-fun e39 ((c0 (_ BitVec 64)) (c1 (_ BitVec 64))) Bool (and (e35 c0 c1) (e38 c0 c1)))
(declare-fun c40 () (_ BitVec 64))
(define-fun e41 ((c0 (_ BitVec 64)) (c1 (_ BitVec 64))) (_ BitVec 64) (c11 c34))
(define-fun e42 ((c0 (_ BitVec 64)) (c1 (_ BitVec 64))) Bool (= c40 (e41 c0 c1)))
(define-fun e43 ((c0 (_ BitVec 64)) (c1 (_ BitVec 64))) Bool (and c31 (e33 c0 c1) (e39 c0 c1) (e42 c0 c1)))
(define-fun e44 ((c0 (_ BitVec 64)) (c1 (_ BitVec 64))) Bool (= (e30 c0 c1) c32))
(define-fun e45 ((c0 (_ BitVec 64)) (c1 (_ BitVec 64))) Bool (= c34 (e12 c0 c1)))
(define-fun e46 ((c0 (_ BitVec 64)) (c1 (_ BitVec 64))) Bool (and (e44 c0 c1) (e45 c0 c1)))
(declare-fun c47 () (_ BitVec 64))
(declare-fun c48 ((_ BitVec 64) (_ BitVec 64)) (_ BitVec 64))
(define-fun e49 ((c0 (_ BitVec 64)) (c1 (_ BitVec 64))) (_ BitVec 64) (c48 (e12 c0 c1) (e30 c0 c1)))
(define-fun e50 ((c0 (_ BitVec 64)) (c1 (_ BitVec 64))) (_ BitVec 64) (ite (e46 c0 c1) c47 (e49 c0 c1)))
(define-fun e51 ((c0 (_ BitVec 64)) (c1 (_ BitVec 64))) (_ BitVec 64) (ite (e43 c0 c1) (e50 c0 c1) (e49 c0 c1)))
(define-fun e52 ((c0 (_ BitVec 64)) (c1 (_ BitVec 64))) Bool (= (e30 c0 c1) (e51 c0 c1)))
(define-fun e53 ((c0 (_ BitVec 64)) (c1 (_ BitVec 64))) Bool (not (e52 c0 c1)))
(define-fun e54 ((c0 (_ BitVec 64)) (c1 (_ BitVec 64))) Bool (and (e16 c0 c1) (e24 c0 c1) (e29 c0 c1) (e53 c0 c1)))
(define-fun e55 ((c0 (_ BitVec 64)) (c1 (_ BitVec 64))) Bool (and (e20 c0 c1) (e22 c0 c1) (e54 c0 c1)))
(define-fun e56 ((c0 (_ BitVec 64)) (c1 (_ BitVec 64))) Bool (not (e55 c0 c1)))
(define-fun e57 ((c0 (_ BitVec 64)) (c1 (_ BitVec 64))) Bool (or (e15 c0 c1) (e56 c0 c1)))
(define-fun e58 () Bool (forall ((c0 (_ BitVec 64)) (c1 (_ BitVec 64))) (e57 c0 c1)))
(declare-fun c59 () (_ BitVec 64))
(define-fun e60 () (_ BitVec 64) (_ bv1024 64))
(define-fun e61 () Bool (bvult c59 e60))
(define-fun e62 () (_ BitVec 64) (_ bv2 64))
(define-fun e63 () (_ BitVec 64) (c7 c59))
(define-fun e64 () Bool (= e62 e63))
(define-fun e65 () Bool (and e61 e64))
(define-fun e66 () Bool (not c31))
(define-fun e67 () Bool (or e65 e66))
(define-fun e68 ((c0 (_ BitVec 64))) (_ BitVec 64) (_ bv0 64))
(define-fun e69 ((c0 (_ BitVec 64))) (_ BitVec 64) (c48 c0 (e68 c0)))
(define-fun e70 ((c0 (_ BitVec 64))) (_ BitVec 64) (_ bv1024 64))
(define-fun e71 ((c0 (_ BitVec 64))) Bool (bvult (e69 c0) (e70 c0)))
(define-fun e72 ((c0 (_ BitVec 64))) (_ BitVec 64) (_ bv3 64))
(define-fun e73 ((c0 (_ BitVec 64))) (_ BitVec 64) (c7 (e69 c0)))
(define-fun e74 ((c0 (_ BitVec 64))) Bool (= (e72 c0) (e73 c0)))
(define-fun e75 ((c0 (_ BitVec 64))) Bool (and (e71 c0) (e74 c0)))
(define-fun e76 ((c0 (_ BitVec 64))) (_ BitVec 64) (c11 (e69 c0)))
(define-fun e77 ((c0 (_ BitVec 64))) Bool (= c0 (e76 c0)))
(define-fun e78 ((c0 (_ BitVec 64))) Bool (and (e75 c0) (e77 c0)))
(define-fun e79 ((c0 (_ BitVec 64))) Bool (bvult c0 (e70 c0)))
(define-fun e80 ((c0 (_ BitVec 64))) (_ BitVec 64) (_ bv1 64))
(define-fun e81 ((c0 (_ BitVec 64))) (_ BitVec 64) (c7 c0))
(define-fun e82 ((c0 (_ BitVec 64))) Bool (= (e80 c0) (e81 c0)))
(define-fun e83 ((c0 (_ BitVec 64))) Bool (and (e79 c0) (e82 c0)))
(define-fun e84 ((c0 (_ BitVec 64))) (_ BitVec 64) (_ bv2 64))
(define-fun e85 ((c0 (_ BitVec 64))) (_ BitVec 64) (c48 c0 (e84 c0)))
(define-fun e86 ((c0 (_ BitVec 64))) Bool (= (e84 c0) (e85 c0)))
(define-fun e87 ((c0 (_ BitVec 64))) Bool (not (e86 c0)))
(define-fun e88 ((c0 (_ BitVec 64))) Bool (and (e83 c0) (e87 c0)))
(define-fun e89 ((c0 (_ BitVec 64))) Bool (not (e88 c0)))
(define-fun e90 ((c0 (_ BitVec 64))) Bool (or (e78 c0) (e89 c0)))
(define-fun e91 () Bool (forall ((c0 (_ BitVec 64))) (e90 c0)))
(define-fun e92 ((c0 (_ BitVec 64)) (c1 (_ BitVec 64))) (_ BitVec 64) (c48 c0 c1))
(define-fun e93 ((c0 (_ BitVec 64)) (c1 (_ BitVec 64))) (_ BitVec 64) (_ bv524314 64))
(define-fun e94 ((c0 (_ BitVec 64)) (c1 (_ BitVec 64))) (_ BitVec 64) (bvadd (e93 c0 c1) (e3 c0 c1)))
(define-fun e95 ((c0 (_ BitVec 64)) (c1 (_ BitVec 64))) (_ BitVec 64) (_ bv10 64))
(define-fun e96 ((c0 (_ BitVec 64)) (c1 (_ BitVec 64))) (_ BitVec 64) (bvshl (e94 c0 c1) (e95 c0 c1)))
(define-fun e97 ((c0 (_ BitVec 64)) (c1 (_ BitVec 64))) (_ BitVec 64) (bvor (e26 c0 c1) (e96 c0 c1)))
(define-fun e98 ((c0 (_ BitVec 64)) (c1 (_ BitVec 64))) (_ BitVec 64) (_ bv0 64))
(define-fun e99 ((c0 (_ BitVec 64)) (c1 (_ BitVec 64))) (_ BitVec 64) (ite (e22 c0 c1) (e97 c0 c1) (e98 c0 c1)))
(define-fun e100 ((c0 (_ BitVec 64)) (c1 (_ BitVec 64))) Bool (= (e92 c0 c1) (e99 c0 c1)))
(define-fun e101 ((c0 (_ BitVec 64)) (c1 (_ BitVec 64))) Bool (= (e30 c0 c1) (e49 c0 c1)))
(define-fun e102 ((c0 (_ BitVec 64)) (c1 (_ BitVec 64))) Bool (not (e101 c0 c1)))
(define-fun e103 ((c0 (_ BitVec 64)) (c1 (_ BitVec 64))) Bool (and (e16 c0 c1) (e24 c0 c1) (e29 c0 c1) (e102 c0 c1)))
(define-fun e104 ((c0 (_ BitVec 64)) (c1 (_ BitVec 64))) Bool (= (e6 c0 c1) (e18 c0 c1)))
(define-fun e105 ((c0 (_ BitVec 64)) (c1 (_ BitVec 64))) Bool (and (e16 c0 c1) (e104 c0 c1)))
(define-fun e106 ((c0 (_ BitVec 64)) (c1 (_ BitVec 64))) Bool (or (e20 c0 c1) (e105 c0 c1)))
(define-fun e107 ((c0 (_ BitVec 64)) (c1 (_ BitVec 64))) Bool (and (e103 c0 c1) (e106 c0 c1)))
(define-fun e108 ((c0 (_ BitVec 64)) (c1 (_ BitVec 64))) Bool (not (e107 c0 c1)))
(define-fun e109 ((c0 (_ BitVec 64)) (c1 (_ BitVec 64))) Bool (or (e100 c0 c1) (e108 c0 c1)))
(define-fun e110 () Bool (forall ((c0 (_ BitVec 64)) (c1 (_ BitVec 64))) (e109 c0 c1)))
(declare-fun c111 ((_ BitVec 64) (_ BitVec 64)) Bool)
(define-fun e112 ((c0 (_ BitVec 64)) (c1 (_ BitVec 64))) Bool (c111 c0 c1))
(define-fun e113 ((c0 (_ BitVec 64)) (c1 (_ BitVec 64))) (_ BitVec 64) (_ bv193 64))
(define-fun e114 ((c0 (_ BitVec 64)) (c1 (_ BitVec 64))) (_ BitVec 64) (_ bv14 64))
(declare-fun c115 ((_ BitVec 64) (_ BitVec 64)) (_ BitVec 64))
(define-fun e116 ((c0 (_ BitVec 64)) (c1 (_ BitVec 64))) (_ BitVec 64) (c115 c0 c1))
(define-fun e117 ((c0 (_ BitVec 64)) (c1 (_ BitVec 64))) (_ BitVec 64) (bvand (e114 c0 c1) (e116 c0 c1)))
(define-fun e118 ((c0 (_ BitVec 64)) (c1 (_ BitVec 64))) (_ BitVec 64) (bvor (e113 c0 c1) (e117 c0 c1)))
(define-fun e119 ((c0 (_ BitVec 64)) (c1 (_ BitVec 64))) (_ BitVec 64) (bvor (e96 c0 c1) (e118 c0 c1)))
(define-fun e120 ((c0 (_ BitVec 64)) (c1 (_ BitVec 64))) (_ BitVec 64) (_ bv525824 64))
(define-fun e121 ((c0 (_ BitVec 64)) (c1 (_ BitVec 64))) (_ BitVec 64) (bvadd (e120 c0 c1) (e3 c0 c1)))
(define-fun e122 ((c0 (_ BitVec 64)) (c1 (_ BitVec 64))) (_ BitVec 64) (bvshl (e121 c0 c1) (e95 c0 c1)))
(define-fun e123 ((c0 (_ BitVec 64)) (c1 (_ BitVec 64))) (_ BitVec 64) (bvor (e118 c0 c1) (e122 c0 c1)))
(define-fun e124 ((c0 (_ BitVec 64)) (c1 (_ BitVec 64))) (_ BitVec 64) (ite (e112 c0 c1) (e119 c0 c1) (e123 c0 c1)))
(define-fun e125 ((c0 (_ BitVec 64)) (c1 (_ BitVec 64))) (_ BitVec 64) (ite (e22 c0 c1) (e124 c0 c1) (e98 c0 c1)))
(define-fun e126 ((c0 (_ BitVec 64)) (c1 (_ BitVec 64))) Bool (= (e92 c0 c1) (e125 c0 c1)))
(define-fun e127 ((c0 (_ BitVec 64)) (c1 (_ BitVec 64))) (_ BitVec 64) (_ bv5 64))
(define-fun e128 ((c0 (_ BitVec 64)) (c1 (_ BitVec 64))) Bool (= (e127 c0 c1) (e18 c0 c1)))
(define-fun e129 ((c0 (_ BitVec 64)) (c1 (_ BitVec 64))) Bool (and (e16 c0 c1) (e128 c0 c1)))
(define-fun e130 ((c0 (_ BitVec 64)) (c1 (_ BitVec 64))) Bool (and (e103 c0 c1) (e129 c0 c1)))
(define-fun e131 ((c0 (_ BitVec 64)) (c1 (_ BitVec 64))) Bool (not (e130 c0 c1)))
(define-fun e132 ((c0 (_ BitVec 64)) (c1 (_ BitVec 64))) Bool (or (e126 c0 c1) (e131 c0 c1)))
(define-fun e133 () Bool (forall ((c0 (_ BitVec 64)) (c1 (_ BitVec 64))) (e132 c0 c1)))
(define-fun e134 ((c0 (_ BitVec 64)) (c1 (_ BitVec 64))) Bool (and (e103 c0 c1) (e20 c0 c1) (e22 c0 c1)))
(define-fun e135 ((c0 (_ BitVec 64)) (c1 (_ BitVec 64))) Bool (not (e134 c0 c1)))
(define-fun e136 ((c0 (_ BitVec 64)) (c1 (_ BitVec 64))) Bool (or (e15 c0 c1) (e135 c0 c1)))
(define-fun e137 () Bool (forall ((c0 (_ BitVec 64)) (c1 (_ BitVec 64))) (e136 c0 c1)))
(define-fun e138 ((c0 (_ BitVec 64)) (c1 (_ BitVec 64))) Bool (= (e127 c0 c1) (e8 c0 c1)))
(define-fun e139 ((c0 (_ BitVec 64)) (c1 (_ BitVec 64))) Bool (and (e5 c0 c1) (e138 c0 c1)))
(define-fun e140 ((c0 (_ BitVec 64)) (c1 (_ BitVec 64))) Bool (and (e14 c0 c1) (e139 c0 c1)))
(define-fun e141 ((c0 (_ BitVec 64)) (c1 (_ BitVec 64))) Bool (and (e103 c0 c1) (e105 c0 c1) (e22 c0 c1)))
(define-fun e142 ((c0 (_ BitVec 64)) (c1 (_ BitVec 64))) Bool (not (e141 c0 c1)))
(define-fun e143 ((c0 (_ BitVec 64)) (c1 (_ BitVec 64))) Bool (or (e140 c0 c1) (e142 c0 c1)))
(define-fun e144 () Bool (forall ((c0 (_ BitVec 64)) (c1 (_ BitVec 64))) (e143 c0 c1)))
(define-fun e145 ((c0 (_ BitVec 64)) (c1 (_ BitVec 64))) Bool (= (e36 c0 c1) (e8 c0 c1)))
(define-fun e146 ((c0 (_ BitVec 64)) (c1 (_ BitVec 64))) Bool (and (e5 c0 c1) (e145 c0 c1)))
(define-fun e147 ((c0 (_ BitVec 64)) (c1 (_ BitVec 64))) Bool (and (e14 c0 c1) (e146 c0 c1)))
(define-fun e148 ((c0 (_ BitVec 64)) (c1 (_ BitVec 64))) Bool (and (e103 c0 c1) (e22 c0 c1) (e129 c0 c1) (e112 c0 c1)))
(define-fun e149 ((c0 (_ BitVec 64)) (c1 (_ BitVec 64))) Bool (not (e148 c0 c1)))
(define-fun e150 ((c0 (_ BitVec 64)) (c1 (_ BitVec 64))) Bool (or (e147 c0 c1) (e149 c0 c1)))
(define-fun e151 () Bool (forall ((c0 (_ BitVec 64)) (c1 (_ BitVec 64))) (e150 c0 c1)))
(define-fun e152 ((c0 (_ BitVec 64)) (c1 (_ BitVec 64))) (_ BitVec 64) (_ bv256 64))
(define-fun e153 ((c0 (_ BitVec 64)) (c1 (_ BitVec 64))) Bool (bvult (e3 c0 c1) (e152 c0 c1)))
(define-fun e154 ((c0 (_ BitVec 64)) (c1 (_ BitVec 64))) Bool (not (e112 c0 c1)))
(define-fun e155 ((c0 (_ BitVec 64)) (c1 (_ BitVec 64))) Bool (and (e103 c0 c1) (e22 c0 c1) (e129 c0 c1) (e154 c0 c1)))
(define-fun e156 ((c0 (_ BitVec 64)) (c1 (_ BitVec 64))) Bool (not (e155 c0 c1)))
(define-fun e157 ((c0 (_ BitVec 64)) (c1 (_ BitVec 64))) Bool (or (e153 c0 c1) (e156 c0 c1)))
(define-fun e158 () Bool (forall ((c0 (_ BitVec 64)) (c1 (_ BitVec 64))) (e157 c0 c1)))
(define-fun e159 ((c0 (_ BitVec 64)) (c1 (_ BitVec 64))) Bool (not (e22 c0 c1)))
(define-fun e160 ((c0 (_ BitVec 64)) (c1 (_ BitVec 64))) Bool (= (e98 c0 c1) (e3 c0 c1)))
(define-fun e161 ((c0 (_ BitVec 64)) (c1 (_ BitVec 64))) Bool (and (e159 c0 c1) (e160 c0 c1)))
(define-fun e162 ((c0 (_ BitVec 64)) (c1 (_ BitVec 64))) Bool (not (e20 c0 c1)))
(define-fun e163 ((c0 (_ BitVec 64)) (c1 (_ BitVec 64))) Bool (not (e105 c0 c1)))
(define-fun e164 ((c0 (_ BitVec 64)) (c1 (_ BitVec 64))) Bool (not (e129 c0 c1)))
(define-fun e165 ((c0 (_ BitVec 64)) (c1 (_ BitVec 64))) Bool (and (e16 c0 c1) (e24 c0 c1) (e162 c0 c1) (e163 c0 c1) (e164 c0 c1)))
(define-fun e166 ((c0 (_ BitVec 64)) (c1 (_ BitVec 64))) Bool (not (e165 c0 c1)))
(define-fun e167 ((c0 (_ BitVec 64)) (c1 (_ BitVec 64))) Bool (or (e161 c0 c1) (e166 c0 c1)))
(define-fun e168 () Bool (forall ((c0 (_ BitVec 64)) (c1 (_ BitVec 64))) (e167 c0 c1)))
(define-fun e169 ((c0 (_ BitVec 64)) (c1 (_ BitVec 64))) Bool (= (e98 c0 c1) (e116 c0 c1)))
(define-fun e170 ((c0 (_ BitVec 64)) (c1 (_ BitVec 64))) Bool (and (e154 c0 c1) (e169 c0 c1)))
(define-fun e171 ((c0 (_ BitVec 64)) (c1 (_ BitVec 64))) Bool (and (e16 c0 c1) (e24 c0 c1) (e164 c0 c1)))
(define-fun e172 ((c0 (_ BitVec 64)) (c1 (_ BitVec 64))) Bool (not (e171 c0 c1)))
(define-fun e173 ((c0 (_ BitVec 64)) (c1 (_ BitVec 64))) Bool (or (e170 c0 c1) (e172 c0 c1)))
(define-fun e174 () Bool (forall ((c0 (_ BitVec 64)) (c1 (_ BitVec 64))) (e173 c0 c1)))
(define-fun e175 () Bool (and e67 e91 e110 e133 e137 e144 e151 e158 e168 e174))
(define-fun e177 ((c176 (_ BitVec 64))) (_ BitVec 64) (c11 c176))
(define-fun e178 ((c176 (_ BitVec 64))) (_ BitVec 64) (_ bv1024 64))
(define-fun e179 ((c176 (_ BitVec 64))) Bool (bvult (e177 c176) (e178 c176)))
(define-fun e180 ((c176 (_ BitVec 64))) (_ BitVec 64) (_ bv1 64))
(define-fun e181 ((c176 (_ BitVec 64))) (_ BitVec 64) (c7 (e177 c176)))
(define-fun e182 ((c176 (_ BitVec 64))) Bool (= (e180 c176) (e181 c176)))
(define-fun e183 ((c176 (_ BitVec 64))) Bool (and (e179 c176) (e182 c176)))
(define-fun e184 ((c176 (_ BitVec 64))) Bool (bvult c176 (e178 c176)))
(define-fun e185 ((c176 (_ BitVec 64))) (_ BitVec 64) (_ bv0 64))
(define-fun e186 ((c176 (_ BitVec 64))) (_ BitVec 64) (c7 c176))
(define-fun e187 ((c176 (_ BitVec 64))) Bool (= (e185 c176) (e186 c176)))
(define-fun e188 ((c176 (_ BitVec 64))) Bool (not (e187 c176)))
(define-fun e189 ((c176 (_ BitVec 64))) Bool (and (e184 c176) (e188 c176)))
(define-fun e190 ((c176 (_ BitVec 64))) Bool (not (e189 c176)))
(define-fun e191 ((c176 (_ BitVec 64))) Bool (or (e183 c176) (e190 c176)))
(define-fun e192 () Bool (forall ((c176 (_ BitVec 64))) (e191 c176)))
(define-fun e193 () Bool (and e175 e192))
(define-fun e194 () Bool (not e193))
(define-fun e195 () Bool (or e58 e194))
(define-fun e196 () Bool (not e195))
(assert e196)
(check-sat)
